
Gurobi 7.5.2 (linux64) logging started Sat Jul  7 16:00:27 2018

Changed value of parameter LogFile to result/ilp/simNo_10-n_100-m_40-s_4-minVAF_0.05-cov_10000-k_2-fn_0.10-fp_0.0001-na_0.15.ILP.gurobiSolverLog
   Prev: gurobi.log  Default: 
Changed value of parameter TimeLimit to 86400.0
   Prev: 1e+100  Min: 0.0  Max: 1e+100  Default: 1e+100
Optimize a model with 639293 rows, 10765 columns and 1940420 nonzeros
Variable types: 0 continuous, 10765 integer (10765 binary)
Coefficient statistics:
  Matrix range     [2e-05, 4e+00]
  Objective range  [3e-01, 9e+00]
  Bounds range     [1e+00, 1e+00]
  RHS range        [3e-01, 2e+00]
Found heuristic solution: objective -17260.38607
Presolve removed 124248 rows and 922 columns (presolve time = 5s) ...
Presolve removed 124285 rows and 922 columns (presolve time = 10s) ...
Presolve removed 124762 rows and 922 columns (presolve time = 15s) ...
Presolve removed 172462 rows and 1399 columns (presolve time = 21s) ...
Presolve removed 172462 rows and 1399 columns
Presolve time: 21.63s
Presolved: 466831 rows, 9366 columns, 1404918 nonzeros
Variable types: 0 continuous, 9366 integer (9366 binary)
Presolved: 9366 rows, 476197 columns, 1414284 nonzeros

Presolve removed 9366 rows and 476197 columns

Root simplex log...

Iteration    Objective       Primal Inf.    Dual Inf.      Time
       0    1.2582907e+01   0.000000e+00   8.713600e+04     26s
   24833   -2.7092455e+02   0.000000e+00   5.732975e+04     30s
   36662   -3.0277669e+02   0.000000e+00   0.000000e+00     35s
   36662   -3.0277669e+02   0.000000e+00   0.000000e+00     37s

Root relaxation: objective -3.027767e+02, 36662 iterations, 12.85 seconds
Total elapsed time = 75.32s
Total elapsed time = 138.13s
Total elapsed time = 187.57s
Total elapsed time = 196.71s

    Nodes    |    Current Node    |     Objective Bounds      |     Work
 Expl Unexpl |  Obj  Depth IntInf | Incumbent    BestBd   Gap | It/Node Time

     0     0 -302.77669    0 1226 -17260.386 -302.77669  98.2%     -  203s
H    0     0                    -626.4759085 -302.77669  51.7%     -  207s
H    0     0                    -370.2286364 -302.77669  18.2%     -  209s
     0     0 -310.10238    0 1217 -370.22864 -310.10238  16.2%     -  300s
H    0     0                    -363.4664623 -310.10238  14.7%     -  314s
     0     0 -310.38413    0 1162 -363.46646 -310.38413  14.6%     -  325s
     0     0 -312.07468    0 1218 -363.46646 -312.07468  14.1%     -  456s
H    0     0                    -361.2124042 -312.07468  13.6%     -  460s
     0     0 -312.16408    0 1217 -361.21240 -312.16408  13.6%     -  469s
     0     0 -312.61709    0 1227 -361.21240 -312.61709  13.5%     -  526s
     0     0 -312.67168    0 1216 -361.21240 -312.67168  13.4%     -  536s
     0     0 -318.60851    0  863 -361.21240 -318.60851  11.8%     - 2615s
     0     0 -318.78977    0  854 -361.21240 -318.78977  11.7%     - 2684s
     0     0 -320.74797    0 1174 -361.21240 -320.74797  11.2%     - 4371s
H    0     0                    -358.8982564 -320.74797  10.6%     - 4377s
     0     0 -321.07926    0 1294 -358.89826 -321.07926  10.5%     - 5173s
     0     0 -321.25416    0 1340 -358.89826 -321.25416  10.5%     - 5513s
     0     0 -321.36623    0 1384 -358.89826 -321.36623  10.5%     - 5772s
     0     0 -321.36795    0 1199 -358.89826 -321.36795  10.5%     - 5791s
     0     0 -323.66512    0 1192 -358.89826 -323.66512  9.82%     - 8546s
H    0     0                    -356.6441983 -323.66512  9.25%     - 8551s
     0     0 -323.97085    0 1134 -356.64420 -323.97085  9.16%     - 9473s
     0     0 -324.12899    0 1288 -356.64420 -324.12899  9.12%     - 10149s
     0     0 -324.12899    0 1296 -356.64420 -324.12899  9.12%     - 10156s
     0     0 -324.79215    0 1256 -356.64420 -324.79215  8.93%     - 19704s
     0     0 -325.02268    0 1245 -356.64420 -325.02268  8.87%     - 19988s
     0     0 -325.13026    0 1246 -356.64420 -325.13026  8.84%     - 20123s
     0     0 -325.13026    0 1268 -356.64420 -325.13026  8.84%     - 20131s
     0     0 -326.06000    0 1400 -356.64420 -326.06000  8.58%     - 24094s
     0     0 -326.25517    0 1376 -356.64420 -326.25517  8.52%     - 24197s
     0     0 -326.40217    0 1448 -356.64420 -326.40217  8.48%     - 24252s
     0     0 -326.52336    0 1317 -356.64420 -326.52336  8.45%     - 24345s
     0     0 -326.52336    0 1312 -356.64420 -326.52336  8.45%     - 24351s
     0     0 -327.42418    0 1435 -356.64420 -327.42418  8.19%     - 26239s
     0     0 -327.73085    0 1303 -356.64420 -327.73085  8.11%     - 26391s
     0     0 -327.84025    0 1429 -356.64420 -327.84025  8.08%     - 26473s
     0     0 -327.84783    0 1429 -356.64420 -327.84783  8.07%     - 26502s
     0     0 -327.85047    0 1431 -356.64420 -327.85047  8.07%     - 26518s
     0     0 -329.24153    0 1189 -356.64420 -329.24153  7.68%     - 33656s
H    0     0                    -354.4502300 -329.24153  7.11%     - 33668s
     0     0 -329.24153    0 1134 -354.45023 -329.24153  7.11%     - 33673s
     0     0 -329.91910    0 1173 -354.45023 -329.91910  6.92%     - 37603s
     0     0 -329.98497    0 1038 -354.45023 -329.98497  6.90%     - 37639s
     0     0 -329.98497    0 1112 -354.45023 -329.98497  6.90%     - 37665s
     0     0 -330.52956    0 1197 -354.45023 -330.52956  6.75%     - 39620s
     0     0 -330.53345    0 1214 -354.45023 -330.53345  6.75%     - 39655s
     0     0 -330.53518    0 1216 -354.45023 -330.53518  6.75%     - 39675s
     0     0 -331.33462    0 1277 -354.45023 -331.33462  6.52%     - 41901s
     0     0 -332.08598    0 1291 -354.45023 -332.08598  6.31%     - 51176s
     0     0 -332.11922    0 1072 -354.45023 -332.11922  6.30%     - 51191s
     0     0 -332.11922    0 1069 -354.45023 -332.11922  6.30%     - 51196s
     0     0 -332.23704    0 1395 -354.45023 -332.23704  6.27%     - 51270s
     0     0 -332.27083    0 1392 -354.45023 -332.27083  6.26%     - 51308s
     0     0 -332.30706    0 1123 -354.45023 -332.30706  6.25%     - 51322s
     0     0 -332.30706    0 1118 -354.45023 -332.30706  6.25%     - 51329s
     0     0 -333.16313    0 1304 -354.45023 -333.16313  6.01%     - 54189s
     0     0 -333.24625    0 1131 -354.45023 -333.24625  5.98%     - 54228s
     0     0 -333.24625    0 1139 -354.45023 -333.24625  5.98%     - 54235s
     0     0 -333.96740    0 1486 -354.45023 -333.96740  5.78%     - 55140s
     0     0 -333.96740    0 1488 -354.45023 -333.96740  5.78%     - 55158s
     0     0 -336.77698    0 1235 -354.45023 -336.77698  4.99%     - 58069s
     0     0 -336.80253    0 1315 -354.45023 -336.80253  4.98%     - 58194s
     0     0 -336.82386    0 1315 -354.45023 -336.82386  4.97%     - 58211s
     0     0 -338.79224    0 1125 -354.45023 -338.79224  4.42%     - 64697s
H    0     0                    -349.6818885 -338.79224  3.11%     - 64704s
     0     0 -338.79445    0 1105 -349.68189 -338.79445  3.11%     - 64715s
     0     0 -339.51420    0 1177 -349.68189 -339.51420  2.91%     - 66031s
     0     0 -339.63275    0 1124 -349.68189 -339.63275  2.87%     - 66052s
     0     0 -339.63275    0 1113 -349.68189 -339.63275  2.87%     - 66056s
     0     0 -339.63275    0 1119 -349.68189 -339.63275  2.87%     - 66067s
     0     0 -339.63275    0 1139 -349.68189 -339.63275  2.87%     - 66080s
     0     0 -339.63275    0 1149 -349.68189 -339.63275  2.87%     - 66097s
     0     0 -339.63275    0 1143 -349.68189 -339.63275  2.87%     - 66106s
     0     0 -339.63275    0 1050 -349.68189 -339.63275  2.87%     - 67457s
     0     0 -339.63275    0 1050 -349.68189 -339.63275  2.87%     - 67613s
     0     2 -339.63629    0 1050 -349.68189 -339.63629  2.87%     - 68018s
     1     3 -343.71341    1  527 -349.68189 -339.63629  2.87% 14551 68165s
     2     4 -346.56103    2  371 -349.68189 -339.63629  2.87%  7613 68174s
     3     5 -347.68806    3  361 -349.68189 -339.63629  2.87%  5221 68178s
     4     4     cutoff    3      -349.68189 -339.63629  2.87%  4000 68181s
     8     6 -348.81508    6  373 -349.68189 -339.63629  2.87%  2047 68194s
     9     5     cutoff    6      -349.68189 -339.63629  2.87%  1834 68195s
    12     4 -345.56701    1  787 -349.68189 -343.72175  1.70%  2932 68477s
    13     5 -349.50389    2  345 -349.68189 -343.72175  1.70%  2768 68489s
H   16     2                    -349.5826622 -343.72175  1.68%  2255 68509s
    16     4 -346.16991    2  411 -349.58266 -343.72175  1.68%  2338 68523s
    17     5 -346.20158    3   83 -349.58266 -343.72175  1.68%  2209 68525s
H   18     3                    -347.3286041 -343.72175  1.04%  2086 68534s
    18     3     cutoff    4      -347.32860 -343.72175  1.04%  2103 68536s
    19     2     cutoff    4      -347.32860 -343.72175  1.04%  2041 68542s
    20     1     cutoff    3      -347.32860 -343.72175  1.04%  2173 68595s
    21     0     cutoff    2      -347.32860 -347.32860  0.00%  4211 69525s

Cutting planes:
  MIR: 1
  Zero half: 218

Explored 22 nodes (1945434 simplex iterations) in 69525.43 seconds
Thread count was 1 (of 80 available processors)

Solution count 10: -347.329 -349.583 -349.682 ... -626.476

Optimal solution found (tolerance 1.00e-04)
Best objective -3.473286041076e+02, best bound -3.473286041076e+02, gap 0.0000%
